\ LP format - for model browsing. Use MPS format to capture full model detail.
\ Signature: 0x498487bd41bf558c
Maximize
  x_1
Subject To
 R0: x_0 - alpha_0 - 1.625 alpha_1 = 6.375
 R1: x_1 - alpha_0 + 1.625 alpha_1 - 1.875 alpha_2 = 5.25
 R2: alpha_0 <= 1
 R3: - alpha_0 <= 1
 R4: alpha_1 <= 1
 R5: - alpha_1 <= 1
 R6: alpha_2 <= 1
 R7: - alpha_2 <= 1
Bounds
 x_0 free
 x_1 free
 alpha_0 free
 alpha_1 free
 alpha_2 free
End
